W=8;
H=4;

MAX_TIME=13;
MAX_TRACKS=8;

TARGET=(1,8);

TRAINS=[(1,1,RIGHT),(4,4,TOP)];

INIT_POS=[
(1,1,STRAIGHT_RL),
(1,4,ESWITCH_L_R_D),
(1,7,STRAIGHT_RL),
(1,8,STRAIGHT_RL),
(4,4,STRAIGHT_TD),
];
TUNNEL_PAIRS=[];

GATES=[];
ACTIVATIONS=[];

DSWITCHES=[];
STATIONS=[];
